LAMMPS (9 Oct 2012)
# 3d protein simulation

units real

timestep 2

dimension	3

boundary s s s
#boundary p p p

neighbor	10 bin
neigh_modify	delay 5

atom_modify sort 0 0.0

special_bonds fene

atom_style	peptide

bond_style harmonic

pair_style vexcluded 2 3.5 3.5

read_data data.1l98
  3 = max bonds/atom
  orthogonal box = (-200 -200 -200) to (200 200 200)
  1 by 1 by 1 MPI processor grid
  492 atoms
  654 bonds
  5 = max # of 1-2 neighbors
  5 = max # of special neighbors

pair_coeff * * 0.0
pair_coeff 1 1 20.0 3.5 4.5
pair_coeff 1 4 20.0 3.5 4.5
pair_coeff 4 4 20.0 3.5 4.5
pair_coeff 3 3 20.0 3.5 3.5


velocity	all create 300.0 2349852

group		alpha_carbons id 1 4 7 10 13 16 19 22 25 28 31 34 37 40 43 46 49 52 55 58 61 64 67 70 73 76 79 82 85 88 91 94 97 100 103 106 109 112 115 118 121 124 127 130 133 136 139 142 145 148 151 154 157 160 163 166 169 172 175 178 181 184 187 190 193 196 199 202 205 208 211 214 217 220 223 226 229 232 235 238 241 244 247 250 253 256 259 262 265 268 271 274 277 280 283 286 289 292 295 298 301 304 307 310 313 316 319 322 325 328 331 334 337 340 343 346 349 352 355 358 361 364 367 370 373 376 379 382 385 388 391 394 397 400 403 406 409 412 415 418 421 424 427 430 433 436 439 442 445 448 451 454 457 460 463 466 469 472 475 478 481 484 487 490
164 atoms in group alpha_carbons

group		beta_atoms id 3 6 9 12 15 18 21 24 27 30 33 36 39 42 45 48 51 54 57 60 63 66 69 72 75 78 81 84 87 90 93 96 99 102 105 108 111 114 117 120 123 126 129 132 135 138 141 144 147 150 153 156 159 162 165 168 171 174 177 180 183 186 189 192 195 198 201 204 207 210 213 216 219 222 225 228 231 234 237 240 243 246 249 252 255 258 261 264 267 270 273 276 279 282 285 288 291 294 297 300 303 306 309 312 315 318 321 324 327 330 333 336 339 342 345 348 351 354 357 360 363 366 369 372 375 378 381 384 387 390 393 396 399 402 405 408 411 414 417 420 423 426 429 432 435 438 441 444 447 450 453 456 459 462 465 468 471 474 477 480 483 486 489 492
164 atoms in group beta_atoms

group		oxygens id 2 5 8 11 14 17 20 23 26 29 32 35 38 41 44 47 50 53 56 59 62 65 68 71 74 77 80 83 86 89 92 95 98 101 104 107 110 113 116 119 122 125 128 131 134 137 140 143 146 149 152 155 158 161 164 167 170 173 176 179 182 185 188 191 194 197 200 203 206 209 212 215 218 221 224 227 230 233 236 239 242 245 248 251 254 257 260 263 266 269 272 275 278 281 284 287 290 293 296 299 302 305 308 311 314 317 320 323 326 329 332 335 338 341 344 347 350 353 356 359 362 365 368 371 374 377 380 383 386 389 392 395 398 401 404 407 410 413 416 419 422 425 428 431 434 437 440 443 446 449 452 455 458 461 464 467 470 473 476 479 482 485 488 491
164 atoms in group oxygens


fix		  1 all nvt temp 300.0 300.0 100.0
fix		  2 alpha_carbons backbone beta_atoms oxygens fix_backbone_coeff.data 1l98.seq
Chain flag on
Chi flag on
Rama flag on
Rama_P flag on
SSWeight flag on
ABC flag on
Dssp_Hdrgn flag on
P_AP flag on
Water flag on
Burial flag on
Helix flag on
Fragment_Memory_Table flag on
DebyeHuckel on

Reading fragments...
Computing FM table...

thermo		1000
dump		1 all atom 1000 dump.lammpstrj

dump_modify	1 sort id

reset_timestep	0
run		10000
Memory usage per processor = 1.00522 Mbytes
Step Temp E_pair E_mol TotEng Press Volume 
       0          300    135.83055    3607.3457     2617.809   -15753.773    68681.791 
    1000    272.32134    25.941447     267.5736   -748.89746   -1366.1257    69053.342 
    2000    307.73539    16.911353     248.0309    -688.6559   -624.17535    69053.342 
    3000    304.53501    20.391548    240.85925   -683.64862   -353.08343    69053.342 
    4000    319.40618     30.69701    238.71279   -683.69708    804.59835    69053.342 
    5000    288.84723    26.311459    212.78312   -724.60591   -1066.6383    69053.342 
    6000    291.98233    25.233252    213.59193   -713.88921   -762.74492    69053.342 
    7000    303.31228    28.514556    218.99835   -697.25356   -475.89542    69053.342 
    8000    312.45916     24.30035    187.42955    -709.6896    431.57616    69053.342 
    9000    292.35395    25.173546    204.18656   -701.71328    621.10284    69053.342 
   10000    318.20042    20.077485     201.6951   -673.56342     717.3972    69053.342 
Loop time of 304.586 on 1 procs for 10000 steps with 492 atoms

Pair  time (%) = 4.31301 (1.41602)
Bond  time (%) = 0.233595 (0.0766925)
Neigh time (%) = 0.00256491 (0.000842096)
Comm  time (%) = 0.0124786 (0.0040969)
Outpt time (%) = 0.00897455 (0.00294647)
Other time (%) = 300.016 (98.4994)

Nlocal:    492 ave 492 max 492 min
Histogram: 1 0 0 0 0 0 0 0 0 0
Nghost:    0 ave 0 max 0 min
Histogram: 1 0 0 0 0 0 0 0 0 0
Neighs:    27213 ave 27213 max 27213 min
Histogram: 1 0 0 0 0 0 0 0 0 0
FullNghs:  54426 ave 54426 max 54426 min
Histogram: 1 0 0 0 0 0 0 0 0 0

Total # of neighbors = 54426
Ave neighs/atom = 110.622
Ave special neighs/atom = 2.65854
Neighbor list builds = 1
Dangerous builds = 0
